NAME : A-n8-k2
COMMENT : (Augerat et al, No of trucks: 2, Optimal value: 28)
TYPE : CVRP
DIMENSION : 8
EDGE_WEIGHT_YPE : EUC_2D 
CAPACITY : 10
NODE_COORD_SECTION 
 1 4 4
 2 1 6
 3 2 2
 4 3 8
 5 5 6
 6 6 3
 7 7 7
 8 8 1
DEMAND_SECTION 
1 0 
2 2
3 1
4 3
5 1
6 2 
7 1
8 4
DEPOT_SECTION 
 1  
 -1  
EOF 
